c FILE /home/rafael/Documents/HappySet/MIHS/inputs/happygen/output/graph_scale_free_k10_p0.3_v100_20241127_083912.txt
c SOURCE This is a scale-free graph formed for the happy graph colouring problem.
c DESCRIPTION It was generated using the problem generator of Rhyd Lewis
c
c GRAPH STATS
c Seed                             = -1350366307
c Number of Nodes                  = 100
c Number of colours k              = 10
c Number of pre-assignments        = 30
c Number of links per new node     = 5
c Density                          = 0.0979798
c 
c The degrees of nodes 1 to 100, respectively, are as follows 
c [38, 35, 34, 33, 31, 30, 21, 20, 20, 19, 17, 17, 17, 15, 15, 13, 13, 13, 13, 13, 12, 12, 11, 11, 10, 10, 
c  10, 10, 10, 10, 10, 9, 9, 9, 9, 9, 8, 8, 8, 8, 8, 8, 8, 8, 8, 7, 7, 7, 7, 7, 7, 
c  7, 7, 7, 6, 6, 6, 6, 6, 6, 6, 6, 6, 6, 6, 6, 6, 6, 6, 6, 6, 5, 5, 5, 5, 5, 
c  5, 5, 5, 5, 5, 5, 5, 5, 5, 5, 5, 5, 5, 5, 5, 5, 5, 5, 5, 5, 5, 5, 5, 5] 
c  
p edge 100 485 10
e 1 2
e 1 3
e 1 4
e 1 5
e 1 6
e 1 7
e 1 9
e 1 10
e 1 12
e 1 14
e 1 16
e 1 17
e 1 18
e 1 23
e 1 25
e 1 31
e 1 33
e 1 35
e 1 37
e 1 41
e 1 50
e 1 51
e 1 53
e 1 55
e 1 56
e 1 61
e 1 64
e 1 66
e 1 67
e 1 71
e 1 73
e 1 76
e 1 77
e 1 89
e 1 92
e 1 93
e 1 97
e 1 100
e 2 3
e 2 4
e 2 5
e 2 6
e 2 7
e 2 8
e 2 10
e 2 11
e 2 13
e 2 14
e 2 18
e 2 19
e 2 21
e 2 23
e 2 28
e 2 29
e 2 33
e 2 34
e 2 37
e 2 40
e 2 42
e 2 47
e 2 51
e 2 55
e 2 56
e 2 57
e 2 62
e 2 69
e 2 70
e 2 72
e 2 74
e 2 77
e 2 92
e 2 100
e 3 4
e 3 6
e 3 10
e 3 11
e 3 13
e 3 16
e 3 19
e 3 21
e 3 23
e 3 24
e 3 25
e 3 30
e 3 33
e 3 34
e 3 35
e 3 41
e 3 42
e 3 44
e 3 57
e 3 60
e 3 63
e 3 69
e 3 73
e 3 74
e 3 78
e 3 79
e 3 81
e 3 87
e 3 88
e 3 91
e 3 97
e 3 98
e 4 5
e 4 6
e 4 8
e 4 9
e 4 11
e 4 12
e 4 14
e 4 17
e 4 20
e 4 24
e 4 26
e 4 28
e 4 29
e 4 30
e 4 31
e 4 33
e 4 34
e 4 36
e 4 38
e 4 47
e 4 53
e 4 59
e 4 65
e 4 67
e 4 74
e 4 75
e 4 80
e 4 84
e 4 96
e 4 99
e 5 6
e 5 7
e 5 8
e 5 9
e 5 10
e 5 11
e 5 12
e 5 14
e 5 15
e 5 20
e 5 22
e 5 24
e 5 26
e 5 32
e 5 36
e 5 42
e 5 43
e 5 44
e 5 48
e 5 49
e 5 55
e 5 58
e 5 70
e 5 71
e 5 73
e 5 79
e 5 94
e 5 95
e 6 8
e 6 9
e 6 10
e 6 12
e 6 14
e 6 15
e 6 16
e 6 17
e 6 19
e 6 20
e 6 24
e 6 27
e 6 28
e 6 30
e 6 44
e 6 49
e 6 52
e 6 56
e 6 60
e 6 67
e 6 76
e 6 78
e 6 82
e 6 89
e 6 97
e 7 10
e 7 13
e 7 14
e 7 17
e 7 18
e 7 19
e 7 23
e 7 31
e 7 32
e 7 34
e 7 46
e 7 48
e 7 51
e 7 55
e 7 61
e 7 71
e 7 76
e 7 85
e 8 11
e 8 12
e 8 14
e 8 16
e 8 20
e 8 21
e 8 22
e 8 30
e 8 32
e 8 35
e 8 43
e 8 46
e 8 72
e 8 82
e 8 83
e 8 97
e 9 14
e 9 24
e 9 27
e 9 38
e 9 40
e 9 48
e 9 49
e 9 51
e 9 56
e 9 62
e 9 70
e 9 73
e 9 78
e 9 80
e 9 89
e 9 100
e 10 13
e 10 14
e 10 17
e 10 18
e 10 21
e 10 46
e 10 48
e 10 53
e 10 60
e 10 64
e 10 80
e 10 91
e 10 98
e 11 13
e 11 19
e 11 23
e 11 26
e 11 27
e 11 42
e 11 47
e 11 48
e 11 50
e 11 62
e 11 77
e 11 99
e 12 16
e 12 20
e 12 27
e 12 37
e 12 40
e 12 47
e 12 53
e 12 69
e 12 83
e 12 84
e 12 91
e 12 98
e 13 18
e 13 25
e 13 38
e 13 39
e 13 42
e 13 45
e 13 50
e 13 52
e 13 55
e 13 59
e 13 81
e 13 90
e 14 15
e 14 25
e 14 72
e 14 83
e 14 87
e 14 88
e 15 18
e 15 23
e 15 32
e 15 35
e 15 39
e 15 46
e 15 59
e 15 64
e 15 69
e 15 79
e 15 88
e 15 97
e 16 33
e 16 40
e 16 50
e 16 52
e 16 70
e 16 79
e 16 85
e 16 90
e 17 25
e 17 32
e 17 36
e 17 45
e 17 57
e 17 65
e 17 75
e 17 85
e 18 22
e 18 29
e 18 49
e 18 50
e 18 51
e 18 53
e 18 94
e 19 22
e 19 26
e 19 27
e 19 28
e 19 37
e 19 70
e 19 75
e 19 90
e 20 36
e 20 38
e 20 41
e 20 43
e 20 58
e 20 68
e 20 78
e 20 81
e 21 22
e 21 34
e 21 43
e 21 54
e 21 63
e 21 65
e 21 75
e 21 95
e 22 41
e 22 61
e 22 71
e 22 78
e 22 85
e 22 87
e 22 92
e 23 26
e 23 46
e 23 59
e 23 63
e 23 74
e 24 69
e 24 75
e 24 81
e 24 89
e 24 90
e 24 93
e 25 31
e 25 45
e 25 52
e 25 60
e 25 68
e 26 28
e 26 58
e 26 63
e 26 91
e 26 92
e 27 29
e 27 40
e 27 54
e 27 84
e 27 86
e 28 45
e 28 61
e 28 76
e 28 84
e 28 99
e 29 35
e 29 55
e 29 58
e 29 66
e 29 76
e 29 86
e 30 35
e 30 37
e 30 39
e 30 67
e 30 68
e 30 86
e 31 34
e 31 39
e 31 66
e 31 68
e 31 85
e 31 96
e 32 36
e 32 47
e 32 72
e 32 100
e 33 44
e 33 49
e 33 52
e 33 98
e 34 56
e 34 58
e 34 63
e 35 61
e 35 77
e 35 92
e 36 62
e 36 65
e 36 86
e 36 91
e 37 57
e 37 88
e 37 93
e 38 51
e 38 65
e 38 74
e 38 80
e 39 58
e 39 87
e 39 95
e 39 96
e 40 54
e 40 77
e 40 98
e 41 53
e 41 59
e 41 87
e 41 90
e 42 62
e 42 93
e 42 99
e 43 45
e 43 52
e 43 54
e 43 67
e 44 53
e 44 64
e 44 66
e 44 82
e 45 54
e 45 94
e 45 99
e 46 56
e 46 82
e 47 84
e 47 95
e 48 57
e 48 73
e 49 66
e 49 72
e 50 80
e 50 81
e 51 79
e 52 60
e 54 71
e 54 94
e 57 68
e 59 89
e 60 82
e 61 88
e 62 64
e 63 83
e 64 83
e 65 100
e 66 93
e 67 86
e 68 96
e 69 94
e 70 95
e 71 96
n 7 8
n 11 10
n 12 1
n 22 2
n 24 3
n 25 6
n 28 1
n 36 8
n 44 5
n 46 8
n 52 6
n 54 10
n 58 4
n 59 3
n 60 6
n 63 3
n 65 8
n 72 6
n 73 9
n 77 10
n 79 4
n 84 1
n 88 10
n 89 3
n 90 3
n 93 3
n 94 10
n 96 7
n 97 2
n 100 8
